Version identifier: 22.1.0.0 | 2022-03-09 | 1a383f8ce
CPXPARAM_Threads                                 1
CPXPARAM_MIP_Strategy_VariableSelect             3
CPXPARAM_TimeLimit                               600
Tried aggregator 1 time.
MIP Presolve eliminated 13 rows and 0 columns.
Reduced MIP has 4507 rows, 10001 columns, and 104655 nonzeros.
Reduced MIP has 10000 binaries, 0 generals, 0 SOSs, and 0 indicators.
Presolve time = 0.05 sec. (35.26 ticks)
Found incumbent of value 20.000000 after 0.16 sec. (103.78 ticks)
Probing time = 0.01 sec. (4.53 ticks)
Tried aggregator 1 time.
Detecting symmetries...
Reduced MIP has 4507 rows, 10001 columns, and 104655 nonzeros.
Reduced MIP has 10000 binaries, 0 generals, 0 SOSs, and 0 indicators.
Presolve time = 0.07 sec. (44.61 ticks)
Probing time = 0.01 sec. (4.53 ticks)
Clique table members: 500.
MIP emphasis: balance optimality and feasibility.
MIP search method: dynamic search.
Parallel mode: none, using 1 thread.
Root relaxation solution time = 3.35 sec. (2828.04 ticks)

        Nodes                                         Cuts/
   Node  Left     Objective  IInf  Best Integer    Best Bound    ItCnt     Gap

*     0+    0                           20.0000        0.0000           100.00%
      0     0        0.0000  2182       20.0000        0.0000     8195  100.00%
*     0+    0                            2.0000        0.0000           100.00%
*     0+    0                            1.0000        0.0000           100.00%
      0     0  -1.00000e+75     0        1.0000        0.0000     8195  100.00%
Detecting symmetries...
      0     2        0.0000   564        1.0000        0.0000     8195  100.00%
Elapsed time = 27.49 sec. (23296.99 ticks, tree = 0.01 MB, solutions = 3)
      1     3        0.0000  1250        1.0000        0.0000    29289  100.00%
      2     4        0.0000   657        1.0000        0.0000    32351  100.00%
      3     5        0.0000  1303        1.0000        0.0000    42865  100.00%
      4     6        0.0000   658        1.0000        0.0000    42911  100.00%
      5     7        0.0000   861        1.0000        0.0000    45443  100.00%
      6     8        0.0000   658        1.0000        0.0000    46248  100.00%
      7     9        0.0000   882        1.0000        0.0000    50370  100.00%
      8    10        0.0000   887        1.0000        0.0000    51888  100.00%
      9    11        0.0000  1049        1.0000        0.0000    52585  100.00%
     10    12        0.0000   854        1.0000        0.0000    52735  100.00%
Elapsed time = 53.15 sec. (45516.93 ticks, tree = 0.25 MB, solutions = 3)
     12    14        0.0000   827        1.0000        0.0000    54655  100.00%
     13    15        0.0000   834        1.0000        0.0000    60470  100.00%
     15    17        0.0000  1564        1.0000        0.0000    67558  100.00%
     16    18        0.0000   867        1.0000        0.0000    70033  100.00%
     17    19        0.0000  1144        1.0000        0.0000    80327  100.00%
     19    21        0.0000  1057        1.0000        0.0000    85540  100.00%
     20    22        0.0000   840        1.0000        0.0000    85816  100.00%
     21    23        0.0000   864        1.0000        0.0000    87876  100.00%
     23    25        0.0000   732        1.0000        0.0000    92528  100.00%
     24    26        0.0000  1639        1.0000        0.0000   104578  100.00%
Elapsed time = 90.53 sec. (77196.79 ticks, tree = 0.67 MB, solutions = 3)
     26    28        0.0000   744        1.0000        0.0000   105610  100.00%
     27    29        0.0000   779        1.0000        0.0000   109143  100.00%
     28    30        0.0000   741        1.0000        0.0000   111086  100.00%
     30    32        0.0000   740        1.0000        0.0000   112065  100.00%
     32    34        0.0000   945        1.0000        0.0000   119698  100.00%
     34    36        0.0000  1011        1.0000        0.0000   151724  100.00%
     36    38        0.0000   696        1.0000        0.0000   152459  100.00%
     37    39        0.0000   695        1.0000        0.0000   162290  100.00%
     38    40        0.0000  1110        1.0000        0.0000   203482  100.00%
     39    41        0.0000   714        1.0000        0.0000   206831  100.00%
Elapsed time = 150.59 sec. (129342.23 ticks, tree = 1.21 MB, solutions = 3)
     40    42        0.0000   697        1.0000        0.0000   206877  100.00%
     41    43        0.0000   722        1.0000        0.0000   225831  100.00%
     43    45        0.0000   781        1.0000        0.0000   243784  100.00%
     45    47        0.0000  1098        1.0000        0.0000   265067  100.00%
     47    49        0.0000  1618        1.0000        0.0000   293084  100.00%
     49    51        0.0000   894        1.0000        0.0000   329810  100.00%
     51    53        0.0000  1050        1.0000        0.0000   336695  100.00%
     53    55        0.0000   786        1.0000        0.0000   337950  100.00%
     54    56        0.0000   813        1.0000        0.0000   343225  100.00%
     56    58        0.0000   650        1.0000        0.0000   346317  100.00%
Elapsed time = 236.58 sec. (204038.83 ticks, tree = 1.73 MB, solutions = 3)
     57    59        0.0000   789        1.0000        0.0000   353680  100.00%
     59    61        0.0000   658        1.0000        0.0000   354478  100.00%
     60    62        0.0000   647        1.0000        0.0000   354707  100.00%
     61    63        0.0000   998        1.0000        0.0000   361931  100.00%
     63    65        0.0000   943        1.0000        0.0000   369044  100.00%
     65    67        0.0000  1090        1.0000        0.0000   376780  100.00%
     67    69        0.0000  1074        1.0000        0.0000   384653  100.00%
     69    71        0.0000   835        1.0000        0.0000   391887  100.00%
     71    73        0.0000   849        1.0000        0.0000   397571  100.00%
     73    75       -0.0000   637        1.0000        0.0000   398526  100.00%
Elapsed time = 263.58 sec. (229296.50 ticks, tree = 2.38 MB, solutions = 3)
     74    76        0.0000  1023        1.0000        0.0000   406067  100.00%
     76    78       -0.0000   617        1.0000        0.0000   406999  100.00%
     78    80        0.0000  1039        1.0000        0.0000   414695  100.00%
     80    82        0.0000   604        1.0000        0.0000   415633  100.00%
     82    84        0.0000   995        1.0000        0.0000   424268  100.00%
     83    85        0.0000  1121        1.0000        0.0000   440745  100.00%
     85    87        0.0000   984        1.0000        0.0000   460812  100.00%
     86    88        0.0000  1324        1.0000        0.0000   463839  100.00%
     87    89        0.0000   888        1.0000        0.0000   473822  100.00%
     88    90       -0.0000   981        1.0000        0.0000   487489  100.00%
Elapsed time = 321.87 sec. (282007.92 ticks, tree = 2.89 MB, solutions = 3)
     89    91       -0.0000  1092        1.0000        0.0000   497546  100.00%
     91    93        0.0000  1140        1.0000        0.0000   504167  100.00%
     92    94        0.0000   993        1.0000        0.0000   508503  100.00%
     93    95        0.0000  1127        1.0000        0.0000   514040  100.00%
     95    97        0.0000  1068        1.0000        0.0000   520071  100.00%
     96    98        0.0000  1053        1.0000        0.0000   529754  100.00%
     97    99        0.0000  1023        1.0000        0.0000   532933  100.00%
     98   100        0.0000  1064        1.0000        0.0000   539285  100.00%
     99   101        0.0000  1141        1.0000        0.0000   543744  100.00%
    101   103        0.0000   997        1.0000        0.0000   554131  100.00%
Elapsed time = 346.90 sec. (303828.21 ticks, tree = 3.36 MB, solutions = 3)
    102   104        0.0000  1059        1.0000        0.0000   558549  100.00%
    103   105        0.0000  1033        1.0000        0.0000   561891  100.00%
    104   106        0.0000  1084        1.0000        0.0000   570311  100.00%
    105   107        0.0000  1025        1.0000        0.0000   573213  100.00%
    107   109        0.0000  1022        1.0000        0.0000   577459  100.00%
    108   110        0.0000  1024        1.0000        0.0000   583045  100.00%
    110   112        0.0000   993        1.0000        0.0000   591901  100.00%
    112   114        0.0000   962        1.0000        0.0000   600575  100.00%
    114   116        0.0000   778        1.0000        0.0000   623166  100.00%
    115   117        0.0000   740        1.0000        0.0000   630572  100.00%
Elapsed time = 373.47 sec. (327124.36 ticks, tree = 3.91 MB, solutions = 3)
    117   119        0.0000   721        1.0000        0.0000   631872  100.00%
    118   120       -0.0000   497        1.0000        0.0000   644399  100.00%
    119   121        0.0000   455        1.0000        0.0000   646512  100.00%
    120   122        0.0000   508        1.0000        0.0000   650980  100.00%
    121   123        0.0000   448        1.0000        0.0000   656512  100.00%
    123   125        0.0000   420        1.0000        0.0000   657584  100.00%
    125   127        0.0000   447        1.0000        0.0000   662683  100.00%
    126   128        0.0000   432        1.0000        0.0000   665215  100.00%
    127   129        0.0000   509        1.0000        0.0000   668484  100.00%
    129   131        0.0000   348        1.0000        0.0000   671115  100.00%
Elapsed time = 399.34 sec. (349980.36 ticks, tree = 4.35 MB, solutions = 3)
    130   132        0.0000   339        1.0000        0.0000   673736  100.00%
    131   133       -0.0000   346        1.0000        0.0000   675448  100.00%
    132   134        0.0000   330        1.0000        0.0000   679519  100.00%
    133   135        0.0000   378        1.0000        0.0000   683633  100.00%
    134   136        0.0000   302        1.0000        0.0000   686101  100.00%
    135   137        0.0003  1090        1.0000        0.0000   695069  100.00%
    136   138        0.0000   362        1.0000        0.0000   698585  100.00%
    137   139        0.0000   311        1.0000        0.0000   703083  100.00%
    139   141        0.0000   348        1.0000        0.0000   708952  100.00%
    144   146        0.0000   237        1.0000        0.0000   715845  100.00%
Elapsed time = 431.90 sec. (378116.10 ticks, tree = 4.93 MB, solutions = 3)
    149   151        0.0000   212        1.0000        0.0000   721143  100.00%
    154   156       -0.0000   199        1.0000        0.0000   727063  100.00%
    156   158        0.0000    96        1.0000        0.0000   736825  100.00%
    160   162        0.0000   116        1.0000        0.0000   742320  100.00%
    163   165        0.0000   148        1.0000        0.0000   749677  100.00%
    166   168        0.0002  1026        1.0000        0.0000   760332  100.00%
    169   171        0.0007  1030        1.0000        0.0000   770572  100.00%
    173   175        0.0000   133        1.0000        0.0000   780306  100.00%
    180   182        0.0000    62        1.0000        0.0000   783093  100.00%
    183   185        0.0000    53        1.0000        0.0000   792169  100.00%
Elapsed time = 495.47 sec. (432972.45 ticks, tree = 6.45 MB, solutions = 3)
    188   190        0.0000    12        1.0000        0.0000   797666  100.00%
*   192     2      integral     0        0.0000        0.0000   807792    0.00%
    192     0       -0.0000     0        0.0000        0.0000   807792    0.00%

Root node processing (before b&c):
  Real time             =   27.38 sec. (23203.71 ticks)
Sequential b&c:
  Real time             =  478.42 sec. (418736.32 ticks)
                          ------------
Total (root+branch&cut) =  505.79 sec. (441940.03 ticks)
Primal:	0
Dual:	0
Status:	Optimal
Time:	505.86
Sequence:
	19
	2
	6
	19
	4
	1
	9
	1
	3
	9
	4
	14
	13
	11
	3
	0
	11
	3
	0
	11
	3
	13
	11
	14
	0
	11
	3
	0
	11
	3
	0
	15
	3
	13
	11
	3
	13
	11
	14
	0
	11
	3
	13
	7
	8
	13
	18
	17
	7
	13
	8
	7
	0
	5
	8
	10
	2
	17
	10
	4
	8
	10
	2
	17
	10
	18
	17
	10
	18
	3
	0
	11
	3
	13
	11
	3
	13
	11
	3
	13
	11
	3
	0
	11
	3
	13
	11
	3
	13
	11
	14
	0
	11
	14
	13
	7
	8
	13
	7
	8
	13
	7
	17
	13
	7
	8
	13
	7
	8
	0
	7
	8
	13
	7
	8
	13
	7
	8
	0
	2
	15
	16
	5
	12
	19
	1
	6
	19
	1
	18
	19
	12
	2
	19
	6
	1
	19
	6
	4
	19
	6
	18
	19
	12
	2
	19
	6
	4
	19
	12
	5
	19
	6
	2
	19
	6
	18
	19
	1
	6
	3
	0
	7
	8
	0
	7
	17
	0
	7
	17
	0
	7
	14
	13
	11
	3
	13
	11
	3
	0
	7
	17
	13
	7
	17
	0
	7
	17
	0
	7
	8
	13
	7
	14
	1
	9
	3
	2
	2
	19
	12
	2
	19
	6
	2
	16
	5
	15
	16
	5
	15
	16
	5
	15
	16
	5
	15
	16
	5
	15
	16
	2
	6
	19
	5
	12
	19
	2
	12
	19
	2
	6
	19
	18
	1
	19
	12
	5
	19
	6
	5
	19
	12
	5
	19
	6
	1
	16
	15
	5
	16
	15
	5
	16
	15
	5
	16
	15
	5
	16
	15
	5
	16
	15
	5
	16
	7
	1
	16
	15
	5
	16
	15
	5
	16
	15
	5
	16
	15
	5
	16
	15
	5
	16
	5
	6
	19
	4
	6
	19
	18
	6
	19
	1
	6
	19
	2
	12
	19
	2
	12
	19
	2
	12
	19
	2
	4
	10
	17
	4
	10
	6
	1
	19
	6
	4
	19
	6
	5
	16
	15
	1
	14
	0
	11
	3
	13
	11
	3
	0
	7
	17
	0
	7
	8
	13
	18
	17
	10
	18
	14
	9
	4
	3
	9
	4
	3
	9
	4
	3
	9
	4
	14
	9
	18
	14
	9
	18
	3
	9
	4
	14
	9
	2
	14
	10
	4
	8
	10
	4
	8
	10
	18
	17
	0
	4
	8
	10
	1
	8
	10
	1
	8
	10
	1
	8
	10
	4
	8
	10
	18
	3
	9
	18
	14
	10
	4
	8
	10
	18
	17
	10
	4
	8
	10
	18
	17
	10
	18
	14
	9
	2
	14
	9
	18
	14
	9
	18
	14
	9
	18
	14
	9
	2
	14
	9
	2
	14
	10
	4
	17
	10
	4
	8
	10
	4
	8
	10
	1
	8
	10
	18
	17
	10
	18
	17
	10
	1
	8
	10
	18
	17
	10
	18
	14
	9
	18
	14
	9
	18
	14
	9
	18
	14
	9
	18
	14
	9
	18
	14
	9
	2
	14
	9
	18
	14
	15
	5
	16
	15
	5
	16
	7
	6
	16
	2
	12
	19
	2
	12
	19
	2
	12
	19
	1
	6
	19
	18
	6
	19
